2 4 9 1
0 80
1 62 63 0  17 1 4 1 2 4 8
2 63 69 0   6 1 4 1 2 4 8
3 52 64 0  16 1 4 1 2 4 8
4 57 58 0  28 1 4 1 2 4 8
5 62 42 0   8 1 4 1 2 4 8
6 56 37 0  10 1 4 1 2 4 8
7 52 41 0  15 1 4 1 2 4 8
8 49 49 0  30 1 4 1 2 4 8
9 58 48 0   6 1 4 1 2 4 8
10 60 50 0   0 0 0
